synthesis/R_UFDT/nat/assoc/sl/left2.sl
(set-logic UFDT)
(set-feature :recursion true)

(declare-datatype nat ((zero) (s (s0 nat))))

(declare-var x0 nat)
(declare-var x1 nat)
(declare-var x2 nat)
(declare-var x3 nat)

(define-fun-rec add ((x nat) (y nat)) nat (match y ((zero x) ((s y0) (s (add x y0))))))


(synth-fun fy ((x0 nat) (x1 nat) (x2 nat) (x3 nat)) nat)

(constraint (= (add x0 (add x1 (add x2 x3))) (add (fy x0 x1 x2 x3) x3)))

(check-synth)
