synthesis/R_UFDT/nat/assoc/smt2/left2.smt2
(set-logic UFDT)

(declare-datatype nat ((zero) (s (s0 nat))))

(define-fun-rec add ((x nat) (y nat)) nat
  (match y ((zero x)
           ((s y0) (s (add x y0))))))


; SPECIFICATION
(assert-synth ((x0 nat) (x1 nat) (x2 nat) (x3 nat)) ((y nat)) (= (add x0 (add x1 (add x2 x3))) (add y x3)))
